40
1 0 6
2 0 4
2 1 16
3 0 16
3 1 5
3 2 4
4 0 3
4 1 17
4 2 16
4 3 15
5 0 18
5 1 4
5 2 6
5 3 7
5 4 10
6 0 20
6 1 19
6 2 7
6 3 8
6 4 10
6 5 5
7 0 17
7 1 12
7 2 1
7 3 6
7 4 19
7 5 15
7 6 8
8 0 1
8 1 17
8 2 8
8 3 5
8 4 19
8 5 19
8 6 1
8 7 13
9 0 15
9 1 14
9 2 10
9 3 15
9 4 19
9 5 5
9 6 19
9 7 5
9 8 18
10 0 4
10 1 13
10 2 20
10 3 14
10 4 16
10 5 6
10 6 3
10 7 9
10 8 6
10 9 1
11 0 19
11 1 8
11 2 3
11 3 13
11 4 17
11 5 19
11 6 10
11 7 19
11 8 1
11 9 8
11 10 1
12 0 17
12 1 8
12 2 14
12 3 15
12 4 9
12 5 12
12 6 18
12 7 1
12 8 6
12 9 8
12 10 17
12 11 2
13 0 5
13 1 9
13 2 19
13 3 7
13 4 3
13 5 14
13 6 15
13 7 11
13 8 14
13 9 8
13 10 16
13 11 8
13 12 13
14 0 11
14 1 16
14 2 5
14 3 1
14 4 1
14 5 2
14 6 5
14 7 1
14 8 14
14 9 3
14 10 19
14 11 13
14 12 10
14 13 6
15 0 3
15 1 11
15 2 2
15 3 10
15 4 1
15 5 9
15 6 13
15 7 19
15 8 15
15 9 3
15 10 9
15 11 13
15 12 7
15 13 12
15 14 15
16 0 15
16 1 9
16 2 8
16 3 1
16 4 11
16 5 5
16 6 2
16 7 5
16 8 10
16 9 9
16 10 19
16 11 1
16 12 19
16 13 17
16 14 15
16 15 14
17 0 13
17 1 20
17 2 4
17 3 11
17 4 6
17 5 17
17 6 6
17 7 7
17 8 15
17 9 2
17 10 11
17 11 6
17 12 6
17 13 9
17 14 6
17 15 17
17 16 9
18 0 17
18 1 18
18 2 7
18 3 6
18 4 13
18 5 16
18 6 18
18 7 14
18 8 18
18 9 10
18 10 19
18 11 12
18 12 1
18 13 10
18 14 17
18 15 4
18 16 6
18 17 11
19 0 14
19 1 16
19 2 15
19 3 9
19 4 2
19 5 20
19 6 3
19 7 14
19 8 17
19 9 9
19 10 19
19 11 18
19 12 20
19 13 13
19 14 8
19 15 7
19 16 20
19 17 1
19 18 2
20 0 3
20 1 15
20 2 8
20 3 18
20 4 1
20 5 12
20 6 20
20 7 12
20 8 8
20 9 8
20 10 14
20 11 3
20 12 9
20 13 2
20 14 14
20 15 10
20 16 6
20 17 14
20 18 20
20 19 12
21 0 14
21 1 3
21 2 5
21 3 12
21 4 16
21 5 17
21 6 16
21 7 13
21 8 3
21 9 15
21 10 18
21 11 5
21 12 3
21 13 10
21 14 1
21 15 18
21 16 5
21 17 2
21 18 11
21 19 15
21 20 1
22 0 4
22 1 14
22 2 12
22 3 8
22 4 3
22 5 8
22 6 19
22 7 14
22 8 10
22 9 12
22 10 17
22 11 11
22 12 15
22 13 7
22 14 10
22 15 13
22 16 2
22 17 15
22 18 4
22 19 11
22 20 18
22 21 16
23 0 15
23 1 16
23 2 1
23 3 7
23 4 4
23 5 2
23 6 18
23 7 2
23 8 18
23 9 10
23 10 14
23 11 19
23 12 19
23 13 7
23 14 6
23 15 5
23 16 9
23 17 3
23 18 18
23 19 3
23 20 2
23 21 16
23 22 9
24 0 12
24 1 4
24 2 8
24 3 18
24 4 15
24 5 4
24 6 18
24 7 13
24 8 7
24 9 4
24 10 2
24 11 3
24 12 11
24 13 20
24 14 12
24 15 8
24 16 10
24 17 7
24 18 13
24 19 10
24 20 14
24 21 5
24 22 12
24 23 17
25 0 5
25 1 5
25 2 6
25 3 17
25 4 2
25 5 16
25 6 15
25 7 7
25 8 1
25 9 5
25 10 1
25 11 1
25 12 10
25 13 12
25 14 6
25 15 10
25 16 20
25 17 2
25 18 16
25 19 12
25 20 2
25 21 3
25 22 19
25 23 19
25 24 19
26 0 11
26 1 17
26 2 11
26 3 8
26 4 12
26 5 16
26 6 19
26 7 2
26 8 16
26 9 5
26 10 19
26 11 8
26 12 4
26 13 3
26 14 12
26 15 17
26 16 12
26 17 10
26 18 13
26 19 15
26 20 17
26 21 12
26 22 15
26 23 11
26 24 9
26 25 9
27 0 18
27 1 14
27 2 8
27 3 6
27 4 13
27 5 12
27 6 11
27 7 18
27 8 18
27 9 14
27 10 13
27 11 15
27 12 6
27 13 18
27 14 5
27 15 3
27 16 4
27 17 19
27 18 14
27 19 5
27 20 11
27 21 4
27 22 19
27 23 15
27 24 7
27 25 9
27 26 18
28 0 6
28 1 17
28 2 11
28 3 6
28 4 2
28 5 6
28 6 1
28 7 16
28 8 11
28 9 11
28 10 12
28 11 8
28 12 1
28 13 14
28 14 7
28 15 19
28 16 7
28 17 9
28 18 7
28 19 20
28 20 7
28 21 3
28 22 16
28 23 2
28 24 10
28 25 7
28 26 4
28 27 7
29 0 8
29 1 18
29 2 11
29 3 20
29 4 7
29 5 15
29 6 14
29 7 16
29 8 11
29 9 12
29 10 19
29 11 3
29 12 10
29 13 4
29 14 20
29 15 10
29 16 15
29 17 18
29 18 18
29 19 9
29 20 10
29 21 5
29 22 8
29 23 16
29 24 2
29 25 10
29 26 18
29 27 3
29 28 14
30 0 3
30 1 14
30 2 5
30 3 20
30 4 5
30 5 19
30 6 17
30 7 8
30 8 9
30 9 3
30 10 19
30 11 17
30 12 3
30 13 3
30 14 5
30 15 12
30 16 16
30 17 10
30 18 4
30 19 12
30 20 13
30 21 2
30 22 15
30 23 2
30 24 1
30 25 4
30 26 7
30 27 12
30 28 8
30 29 4
31 0 2
31 1 13
31 2 15
31 3 8
31 4 5
31 5 10
31 6 8
31 7 7
31 8 2
31 9 5
31 10 5
31 11 3
31 12 15
31 13 10
31 14 14
31 15 20
31 16 14
31 17 18
31 18 18
31 19 13
31 20 17
31 21 6
31 22 10
31 23 4
31 24 12
31 25 13
31 26 9
31 27 3
31 28 13
31 29 17
31 30 17
32 0 4
32 1 14
32 2 6
32 3 14
32 4 11
32 5 6
32 6 11
32 7 9
32 8 6
32 9 14
32 10 20
32 11 5
32 12 3
32 13 18
32 14 4
32 15 8
32 16 16
32 17 15
32 18 18
32 19 12
32 20 8
32 21 12
32 22 11
32 23 19
32 24 5
32 25 7
32 26 13
32 27 10
32 28 14
32 29 9
32 30 11
32 31 1
33 0 4
33 1 1
33 2 11
33 3 20
33 4 18
33 5 5
33 6 4
33 7 3
33 8 17
33 9 10
33 10 1
33 11 15
33 12 12
33 13 15
33 14 18
33 15 9
33 16 7
33 17 5
33 18 12
33 19 3
33 20 8
33 21 11
33 22 20
33 23 17
33 24 20
33 25 6
33 26 1
33 27 20
33 28 4
33 29 13
33 30 1
33 31 1
33 32 2
34 0 14
34 1 3
34 2 9
34 3 15
34 4 2
34 5 14
34 6 6
34 7 15
34 8 5
34 9 15
34 10 11
34 11 15
34 12 6
34 13 11
34 14 10
34 15 1
34 16 13
34 17 5
34 18 2
34 19 9
34 20 5
34 21 19
34 22 17
34 23 13
34 24 20
34 25 7
34 26 4
34 27 19
34 28 13
34 29 3
34 30 18
34 31 6
34 32 3
34 33 11
35 0 16
35 1 14
35 2 10
35 3 17
35 4 3
35 5 3
35 6 11
35 7 10
35 8 12
35 9 17
35 10 20
35 11 3
35 12 17
35 13 14
35 14 13
35 15 5
35 16 18
35 17 18
35 18 3
35 19 10
35 20 12
35 21 14
35 22 19
35 23 11
35 24 20
35 25 20
35 26 16
35 27 4
35 28 3
35 29 9
35 30 7
35 31 19
35 32 10
35 33 12
35 34 3
36 0 5
36 1 16
36 2 10
36 3 16
36 4 12
36 5 3
36 6 16
36 7 13
36 8 9
36 9 3
36 10 10
36 11 10
36 12 4
36 13 5
36 14 4
36 15 16
36 16 8
36 17 9
36 18 2
36 19 12
36 20 20
36 21 8
36 22 2
36 23 16
36 24 15
36 25 5
36 26 14
36 27 20
36 28 1
36 29 19
36 30 9
36 31 6
36 32 18
36 33 11
36 34 14
36 35 16
37 0 2
37 1 5
37 2 2
37 3 11
37 4 3
37 5 11
37 6 17
37 7 8
37 8 16
37 9 12
37 10 16
37 11 10
37 12 16
37 13 13
37 14 1
37 15 5
37 16 5
37 17 17
37 18 11
37 19 2
37 20 15
37 21 20
37 22 4
37 23 18
37 24 2
37 25 16
37 26 6
37 27 18
37 28 10
37 29 9
37 30 12
37 31 2
37 32 17
37 33 3
37 34 18
37 35 16
37 36 11
38 0 6
38 1 5
38 2 18
38 3 10
38 4 6
38 5 8
38 6 12
38 7 8
38 8 16
38 9 16
38 10 18
38 11 1
38 12 16
38 13 3
38 14 6
38 15 2
38 16 17
38 17 9
38 18 10
38 19 15
38 20 12
38 21 6
38 22 5
38 23 16
38 24 12
38 25 8
38 26 11
38 27 4
38 28 16
38 29 14
38 30 3
38 31 12
38 32 20
38 33 9
38 34 9
38 35 15
38 36 6
38 37 10
39 0 20
39 1 3
39 2 6
39 3 13
39 4 2
39 5 3
39 6 20
39 7 4
39 8 13
39 9 19
39 10 9
39 11 14
39 12 6
39 13 16
39 14 20
39 15 8
39 16 5
39 17 5
39 18 10
39 19 2
39 20 9
39 21 3
39 22 2
39 23 8
39 24 18
39 25 13
39 26 2
39 27 20
39 28 13
39 29 14
39 30 6
39 31 8
39 32 6
39 33 4
39 34 14
39 35 19
39 36 5
39 37 9
39 38 18
